p cnf 40 450
-1 -6 0
-1 -7 0
-1 -8 0
-1 -9 0
-1 -10 0
-2 -6 0
-2 -7 0
-2 -8 0
-2 -9 0
-2 -10 0
-3 -6 0
-3 -7 0
-3 -8 0
-3 -9 0
-3 -10 0
-4 -6 0
-4 -7 0
-4 -8 0
-4 -9 0
-4 -10 0
-5 -6 0
-5 -7 0
-5 -8 0
-5 -9 0
-5 -10 0
-1 -31 0
-1 -32 0
-1 -33 0
-1 -34 0
-1 -35 0
-2 -31 0
-2 -32 0
-2 -33 0
-2 -34 0
-2 -35 0
-3 -31 0
-3 -32 0
-3 -33 0
-3 -34 0
-3 -35 0
-4 -31 0
-4 -32 0
-4 -33 0
-4 -34 0
-4 -35 0
-5 -31 0
-5 -32 0
-5 -33 0
-5 -34 0
-5 -35 0
-1 -36 0
-1 -37 0
-1 -38 0
-1 -39 0
-1 -40 0
-2 -36 0
-2 -37 0
-2 -38 0
-2 -39 0
-2 -40 0
-3 -36 0
-3 -37 0
-3 -38 0
-3 -39 0
-3 -40 0
-4 -36 0
-4 -37 0
-4 -38 0
-4 -39 0
-4 -40 0
-5 -36 0
-5 -37 0
-5 -38 0
-5 -39 0
-5 -40 0
-6 -21 0
-6 -22 0
-6 -23 0
-6 -24 0
-6 -25 0
-7 -21 0
-7 -22 0
-7 -23 0
-7 -24 0
-7 -25 0
-8 -21 0
-8 -22 0
-8 -23 0
-8 -24 0
-8 -25 0
-9 -21 0
-9 -22 0
-9 -23 0
-9 -24 0
-9 -25 0
-10 -21 0
-10 -22 0
-10 -23 0
-10 -24 0
-10 -25 0
-11 -26 0
-11 -27 0
-11 -28 0
-11 -29 0
-11 -30 0
-12 -26 0
-12 -27 0
-12 -28 0
-12 -29 0
-12 -30 0
-13 -26 0
-13 -27 0
-13 -28 0
-13 -29 0
-13 -30 0
-14 -26 0
-14 -27 0
-14 -28 0
-14 -29 0
-14 -30 0
-15 -26 0
-15 -27 0
-15 -28 0
-15 -29 0
-15 -30 0
-16 -26 0
-16 -27 0
-16 -28 0
-16 -29 0
-16 -30 0
-17 -26 0
-17 -27 0
-17 -28 0
-17 -29 0
-17 -30 0
-18 -26 0
-18 -27 0
-18 -28 0
-18 -29 0
-18 -30 0
-19 -26 0
-19 -27 0
-19 -28 0
-19 -29 0
-19 -30 0
-20 -26 0
-20 -27 0
-20 -28 0
-20 -29 0
-20 -30 0
-21 -26 0
-21 -27 0
-21 -28 0
-21 -29 0
-21 -30 0
-22 -26 0
-22 -27 0
-22 -28 0
-22 -29 0
-22 -30 0
-23 -26 0
-23 -27 0
-23 -28 0
-23 -29 0
-23 -30 0
-24 -26 0
-24 -27 0
-24 -28 0
-24 -29 0
-24 -30 0
-25 -26 0
-25 -27 0
-25 -28 0
-25 -29 0
-25 -30 0
-21 -31 0
-21 -32 0
-21 -33 0
-21 -34 0
-21 -35 0
-22 -31 0
-22 -32 0
-22 -33 0
-22 -34 0
-22 -35 0
-23 -31 0
-23 -32 0
-23 -33 0
-23 -34 0
-23 -35 0
-24 -31 0
-24 -32 0
-24 -33 0
-24 -34 0
-24 -35 0
-25 -31 0
-25 -32 0
-25 -33 0
-25 -34 0
-25 -35 0
-21 -36 0
-21 -37 0
-21 -38 0
-21 -39 0
-21 -40 0
-22 -36 0
-22 -37 0
-22 -38 0
-22 -39 0
-22 -40 0
-23 -36 0
-23 -37 0
-23 -38 0
-23 -39 0
-23 -40 0
-24 -36 0
-24 -37 0
-24 -38 0
-24 -39 0
-24 -40 0
-25 -36 0
-25 -37 0
-25 -38 0
-25 -39 0
-25 -40 0
-1 -6 0
-1 -11 0
-1 -16 0
-1 -21 0
-1 -26 0
-1 -31 0
-1 -36 0
-6 -11 0
-6 -16 0
-6 -21 0
-6 -26 0
-6 -31 0
-6 -36 0
-11 -16 0
-11 -21 0
-11 -26 0
-11 -31 0
-11 -36 0
-16 -21 0
-16 -26 0
-16 -31 0
-16 -36 0
-21 -26 0
-21 -31 0
-21 -36 0
-26 -31 0
-26 -36 0
-31 -36 0
1 6 11 16 21 26 31 36 0
-2 -7 0
-2 -12 0
-2 -17 0
-2 -22 0
-2 -27 0
-2 -32 0
-2 -37 0
-7 -12 0
-7 -17 0
-7 -22 0
-7 -27 0
-7 -32 0
-7 -37 0
-12 -17 0
-12 -22 0
-12 -27 0
-12 -32 0
-12 -37 0
-17 -22 0
-17 -27 0
-17 -32 0
-17 -37 0
-22 -27 0
-22 -32 0
-22 -37 0
-27 -32 0
-27 -37 0
-32 -37 0
2 7 12 17 22 27 32 37 0
-3 -8 0
-3 -13 0
-3 -18 0
-3 -23 0
-3 -28 0
-3 -33 0
-3 -38 0
-8 -13 0
-8 -18 0
-8 -23 0
-8 -28 0
-8 -33 0
-8 -38 0
-13 -18 0
-13 -23 0
-13 -28 0
-13 -33 0
-13 -38 0
-18 -23 0
-18 -28 0
-18 -33 0
-18 -38 0
-23 -28 0
-23 -33 0
-23 -38 0
-28 -33 0
-28 -38 0
-33 -38 0
3 8 13 18 23 28 33 38 0
-4 -9 0
-4 -14 0
-4 -19 0
-4 -24 0
-4 -29 0
-4 -34 0
-4 -39 0
-9 -14 0
-9 -19 0
-9 -24 0
-9 -29 0
-9 -34 0
-9 -39 0
-14 -19 0
-14 -24 0
-14 -29 0
-14 -34 0
-14 -39 0
-19 -24 0
-19 -29 0
-19 -34 0
-19 -39 0
-24 -29 0
-24 -34 0
-24 -39 0
-29 -34 0
-29 -39 0
-34 -39 0
4 9 14 19 24 29 34 39 0
-5 -10 0
-5 -15 0
-5 -20 0
-5 -25 0
-5 -30 0
-5 -35 0
-5 -40 0
-10 -15 0
-10 -20 0
-10 -25 0
-10 -30 0
-10 -35 0
-10 -40 0
-15 -20 0
-15 -25 0
-15 -30 0
-15 -35 0
-15 -40 0
-20 -25 0
-20 -30 0
-20 -35 0
-20 -40 0
-25 -30 0
-25 -35 0
-25 -40 0
-30 -35 0
-30 -40 0
-35 -40 0
5 10 15 20 25 30 35 40 0
-1 -2 0
-1 -3 0
-1 -4 0
-1 -5 0
-2 -3 0
-2 -4 0
-2 -5 0
-3 -4 0
-3 -5 0
-4 -5 0
-6 -7 0
-6 -8 0
-6 -9 0
-6 -10 0
-7 -8 0
-7 -9 0
-7 -10 0
-8 -9 0
-8 -10 0
-9 -10 0
-11 -12 0
-11 -13 0
-11 -14 0
-11 -15 0
-12 -13 0
-12 -14 0
-12 -15 0
-13 -14 0
-13 -15 0
-14 -15 0
-16 -17 0
-16 -18 0
-16 -19 0
-16 -20 0
-17 -18 0
-17 -19 0
-17 -20 0
-18 -19 0
-18 -20 0
-19 -20 0
-21 -22 0
-21 -23 0
-21 -24 0
-21 -25 0
-22 -23 0
-22 -24 0
-22 -25 0
-23 -24 0
-23 -25 0
-24 -25 0
-26 -27 0
-26 -28 0
-26 -29 0
-26 -30 0
-27 -28 0
-27 -29 0
-27 -30 0
-28 -29 0
-28 -30 0
-29 -30 0
-31 -32 0
-31 -33 0
-31 -34 0
-31 -35 0
-32 -33 0
-32 -34 0
-32 -35 0
-33 -34 0
-33 -35 0
-34 -35 0
-36 -37 0
-36 -38 0
-36 -39 0
-36 -40 0
-37 -38 0
-37 -39 0
-37 -40 0
-38 -39 0
-38 -40 0
-39 -40 0
